598
0
3,2,6,1321
0
3,2,7,1034
0
3,2,8,930
0
3,2,9,3030
0
3,2,4,239
0
3,2,5,4
0
3,0,0,0
180447000
3,2,6,1321
0
3,2,7,1034
0
3,2,8,930
0
3,2,9,3029
0
3,2,4,239
0
3,2,5,4
0
3,0,0,0
179625000
3,2,6,1321
0
3,2,7,1035
0
3,2,8,930
0
3,2,9,3029
0
3,2,4,239
0
3,2,5,4
0
3,0,0,0
179486999
3,2,6,1321
0
3,2,7,1034
0
3,2,8,930
0
3,2,9,3029
0
3,2,4,239
0
3,2,5,4
0
3,0,0,0
179787001
3,2,6,1322
0
3,2,7,1034
0
3,2,8,930
0
3,2,9,3028
0
3,2,4,239
0
3,2,5,4
0
3,0,0,0
179489999
3,2,6,1321
0
3,2,7,1034
0
3,2,8,930
0
3,2,9,3028
0
3,2,4,239
0
3,2,5,4
0
3,0,0,0
179663001
3,2,6,1322
0
3,2,7,1034
0
3,2,8,929
0
3,2,9,3028
0
3,2,4,239
0
3,2,5,4
0
3,0,0,0
179586999
3,2,6,1320
0
3,2,7,1033
0
3,2,8,930
0
3,2,9,3027
0
3,2,4,239
0
3,2,5,4
0
3,0,0,0
179567001
3,2,6,1321
0
3,2,7,1034
0
3,2,8,930
0
3,2,9,3027
0
3,2,4,239
0
3,2,5,4
0
3,0,0,0
179516000
3,2,6,1321
0
3,2,7,1034
0
3,2,8,930
0
3,2,9,3027
0
3,2,4,239
0
3,2,5,4
0
3,0,0,0
179667000
3,2,6,1321
0
3,2,7,1034
0
3,2,8,930
0
3,2,9,3027
0
3,2,4,239
0
3,2,5,4
0
3,0,0,0
179521000
3,2,6,1321
0
3,2,7,1034
0
3,2,8,930
0
3,2,9,3026
0
3,2,4,239
0
3,2,5,4
0
3,0,0,0
179379999
3,2,6,1321
0
3,2,7,1034
0
3,2,8,930
0
3,2,9,3028
0
3,2,4,239
0
3,2,5,4
0
3,0,0,0
179647001
3,2,6,1320
0
3,2,7,1034
0
3,2,8,930
0
3,2,9,3026
0
3,2,4,239
0
3,2,5,4
0
3,0,0,0
179504000
3,2,6,1320
0
3,2,7,1034
0
3,2,8,930
0
3,2,9,3027
0
3,2,4,239
0
3,2,5,4
0
3,0,0,0
179592000
3,2,6,1320
0
3,2,7,1034
0
3,2,8,930
0
3,2,9,3026
0
3,2,4,239
0
3,2,5,4
0
3,0,0,0
179681000
3,2,6,1320
0
3,2,7,1034
0
3,2,8,930
0
3,2,9,3025
0
3,2,4,239
0
3,2,5,4
0
3,0,0,0
179498999
3,2,6,1320
0
3,2,7,1034
0
3,2,8,930
0
3,2,9,3027
0
3,2,4,239
0
3,2,5,4
0
3,0,0,0
179490001
3,2,6,1321
0
3,2,7,1034
0
3,2,8,930
0
3,2,9,3026
0
3,2,4,239
0
3,2,5,4
0
3,0,0,0
179592000
3,2,6,1321
0
3,2,7,1034
0
3,2,8,930
0
3,2,9,3028
0
3,2,4,239
0
3,2,5,4
0
3,0,0,0
10427999
2,3,57,233
0
2,1,330,1
0
2,3,53,512
0
2,3,54,364
0
2,3,48,6
0
2,3,49,5
0
2,0,0,0
21381000
2,3,48,7
0
2,3,49,6
0
2,0,0,0
33137001
2,3,48,6
0
2,3,49,5
0
2,0,0,0
10996999
2,3,53,511
0
2,3,48,8
0
2,3,49,7
0
2,0,0,0
10688001
2,3,57,4294967295
0
2,1,330,0
0
2,0,0,0
92069999
3,2,6,1321
0
3,2,7,1034
0
3,2,8,930
0
3,2,9,3026
0
3,2,4,239
0
3,2,5,4
0
3,0,0,0
179360001
3,2,6,1321
0
3,2,7,1033
0
3,2,8,930
0
3,2,9,3026
0
3,2,4,239
0
3,2,5,4
0
3,0,0,0
179652000
3,2,6,1322
0
3,2,7,1034
0
3,2,8,930
0
3,2,9,3026
0
3,2,4,239
0
3,2,5,4
0
3,0,0,0
179953000
3,2,6,1321
0
3,2,7,1034
0
3,2,8,930
0
3,2,9,3028
0
3,2,4,239
0
3,2,5,4
0
3,0,0,0
179562000
3,2,6,1321
0
3,2,7,1034
0
3,2,8,930
0
3,2,9,3027
0
3,2,4,239
0
3,2,5,4
0
3,0,0,0
179304000
3,2,6,1321
0
3,2,7,1034
0
3,2,8,930
0
3,2,9,3027
0
3,2,4,239
0
3,2,5,4
0
3,0,0,0
179896000
3,2,6,1321
0
3,2,7,1034
0
3,2,8,930
0
3,2,9,3027
0
3,2,4,239
0
3,2,5,4
0
3,0,0,0
179294999
3,2,6,1321
0
3,2,7,1034
0
3,2,8,930
0
3,2,9,3027
0
3,2,4,239
0
3,2,5,4
0
3,0,0,0
179693000
3,2,6,1321
0
3,2,7,1034
0
3,2,8,930
0
3,2,9,3027
0
3,2,4,239
0
3,2,5,4
0
3,0,0,0
179560001
3,2,6,1321
0
3,2,7,1034
0
3,2,8,930
0
3,2,9,3028
0
3,2,4,239
0
3,2,5,4
0
3,0,0,0
179588000
3,2,6,1321
0
3,2,7,1034
0
3,2,8,930
0
3,2,9,3027
0
3,2,4,239
0
3,2,5,4
0
3,0,0,0
179569000
3,2,6,1322
0
3,2,7,1034
0
3,2,8,930
0
3,2,9,3027
0
3,2,4,239
0
3,2,5,4
0
3,0,0,0
179633999
3,2,6,1321
0
3,2,7,1034
0
3,2,8,930
0
3,2,9,3026
0
3,2,4,239
0
3,2,5,4
0
3,0,0,0
179248001
3,2,6,1321
0
3,2,7,1034
0
3,2,8,930
0
3,2,9,3026
0
3,2,4,239
0
3,2,5,4
0
3,0,0,0
179926000
3,2,6,1320
0
3,2,7,1034
0
3,2,8,930
0
3,2,9,3025
0
3,2,4,239
0
3,2,5,4
0
3,0,0,0
179111000
3,2,6,1321
0
3,2,7,1034
0
3,2,8,930
0
3,2,9,3025
0
3,2,4,239
0
3,2,5,4
0
3,0,0,0
179562999
3,2,6,1320
0
3,2,7,1034
0
3,2,8,930
0
3,2,9,3025
0
3,2,4,239
0
3,2,5,4
0
3,0,0,0
179872001
3,2,6,1320
0
3,2,7,1034
0
3,2,8,930
0
3,2,9,3027
0
3,2,4,239
0
3,2,5,4
0
3,0,0,0
179756000
3,2,6,1322
0
3,2,7,1034
0
3,2,8,930
0
3,2,9,3024
0
3,2,4,239
0
3,2,5,4
0
3,0,0,0
179103999
3,2,6,1320
0
3,2,7,1033
0
3,2,8,930
0
3,2,9,3026
0
3,2,4,239
0
3,2,5,4
0
3,0,0,0
179642001
3,2,6,1321
0
3,2,7,1033
0
3,2,8,930
0
3,2,9,3028
0
3,2,4,239
0
3,2,5,4
0
3,0,0,0
179627000
3,2,6,1321
0
3,2,7,1034
0
3,2,8,930
0
3,2,9,3027
0
3,2,4,239
0
3,2,5,4
0
3,0,0,0
179393000
3,2,6,1321
0
3,2,7,1034
0
3,2,8,930
0
3,2,9,3027
0
3,2,4,239
0
3,2,5,4
0
3,0,0,0
179691000
3,2,6,1321
0
3,2,7,1034
0
3,2,8,930
0
3,2,9,3027
0
3,2,4,239
0
3,2,5,4
0
3,0,0,0
179462000
3,2,6,1321
0
3,2,7,1034
0
3,2,8,930
0
3,2,9,3027
0
3,2,4,239
0
3,2,5,4
0
3,0,0,0
179583000
3,2,6,1321
0
3,2,7,1034
0
3,2,8,930
0
3,2,9,3026
0
3,2,4,239
0
3,2,5,4
0
3,0,0,0
180063999
3,2,6,1322
0
3,2,7,1034
0
3,2,8,930
0
3,2,9,3027
0
3,2,4,239
0
3,2,5,4
0
3,0,0,0
179540001
3,2,6,1321
0
3,2,7,1034
0
3,2,8,930
0
3,2,9,3027
0
3,2,4,239
0
3,2,5,4
0
3,0,0,0
179151000
3,2,6,1322
0
3,2,7,1034
0
3,2,8,930
0
3,2,9,3027
0
3,2,4,239
0
3,2,5,4
0
3,0,0,0
179553000
3,2,6,1321
0
3,2,7,1034
0
3,2,8,931
0
3,2,9,3030
0
3,2,4,239
0
3,2,5,4
0
3,0,0,0
180020999
3,2,6,1322
0
3,2,7,1033
0
3,2,8,931
0
3,2,9,3029
0
3,2,4,239
0
3,2,5,4
0
3,0,0,0
179114000
3,2,6,1321
0
3,2,7,1034
0
3,2,8,931
0
3,2,9,3027
0
3,2,4,239
0
3,2,5,4
0
3,0,0,0
179588000
3,2,6,1320
0
3,2,7,1034
0
3,2,8,930
0
3,2,9,3026
0
3,2,4,239
0
3,2,5,4
0
3,0,0,0
179566000
3,2,6,1321
0
3,2,7,1034
0
3,2,8,930
0
3,2,9,3027
0
3,2,4,239
0
3,2,5,4
0
3,0,0,0
179583001
3,2,6,1321
0
3,2,7,1034
0
3,2,8,930
0
3,2,9,3026
0
3,2,4,239
0
3,2,5,4
0
3,0,0,0
179678000
3,2,6,1321
0
3,2,7,1034
0
3,2,8,931
0
3,2,9,3027
0
3,2,4,239
0
3,2,5,4
0
3,0,0,0
179838999
3,2,6,1321
0
3,2,7,1034
0
3,2,8,930
0
3,2,9,3026
0
3,2,4,239
0
3,2,5,4
0
3,0,0,0
179504001
3,2,6,1321
0
3,2,7,1034
0
3,2,8,930
0
3,2,9,3028
0
3,2,4,239
0
3,2,5,4
0
3,0,0,0
179359999
3,2,6,1322
0
3,2,7,1034
0
3,2,8,930
0
3,2,9,3028
0
3,2,4,239
0
3,2,5,4
0
3,0,0,0
179613001
3,2,6,1322
0
3,2,7,1034
0
3,2,8,931
0
3,2,9,3027
0
3,2,4,239
0
3,2,5,4
0
3,0,0,0
179529000
3,2,6,1322
0
3,2,7,1034
0
3,2,8,930
0
3,2,9,3028
0
3,2,4,239
0
3,2,5,4
0
3,0,0,0
179566000
3,2,6,1322
0
3,2,7,1035
0
3,2,8,930
0
3,2,9,3029
0
3,2,4,239
0
3,2,5,4
0
3,0,0,0
179532000
3,2,6,1322
0
3,2,7,1034
0
3,2,8,930
0
3,2,9,3029
0
3,2,4,239
0
3,2,5,4
0
3,0,0,0
179653000
3,2,6,1322
0
3,2,7,1034
0
3,2,8,930
0
3,2,9,3027
0
3,2,4,239
0
3,2,5,4
0
3,0,0,0
179507000
3,2,6,1322
0
3,2,7,1034
0
3,2,8,930
0
3,2,9,3027
0
3,2,4,239
0
3,2,5,4
0
3,0,0,0
179481000
3,2,6,1322
0
3,2,7,1034
0
3,2,8,930
0
3,2,9,3028
0
3,2,4,239
0
3,2,5,4
0
3,0,0,0
179683000
3,2,6,1322
0
3,2,7,1034
0
3,2,8,930
0
3,2,9,3027
0
3,2,4,239
0
3,2,5,4
0
3,0,0,0
179662000
3,2,6,1322
0
3,2,7,1034
0
3,2,8,930
0
3,2,9,3029
0
3,2,4,239
0
3,2,5,4
0
3,0,0,0
179500000
3,2,6,1322
0
3,2,7,1034
0
3,2,8,931
0
3,2,9,3029
0
3,2,4,239
0
3,2,5,4
0
3,0,0,0
179515000
3,2,6,1323
0
3,2,7,1035
0
3,2,8,930
0
3,2,9,3028
0
3,2,4,239
0
3,2,5,4
0
3,0,0,0
179498000
3,2,6,1322
0
3,2,7,1034
0
3,2,8,930
0
3,2,9,3027
0
3,2,4,239
0
3,2,5,4
0
3,0,0,0
179709000
3,2,6,1321
0
3,2,7,1034
0
3,2,8,930
0
3,2,9,3027
0
3,2,4,239
0
3,2,5,4
0
3,0,0,0
20725000
1,1,158,1
0
1,0,0,0
119931000
1,1,158,0
0
1,0,0,0
38932000
3,2,6,1321
0
3,2,7,1034
0
3,2,8,930
0
3,2,9,3027
0
3,2,4,239
0
3,2,5,4
0
3,0,0,0
179806000
3,2,6,1321
0
3,2,7,1034
0
3,2,8,930
0
3,2,9,3028
0
3,2,4,239
0
3,2,5,4
0
3,0,0,0
179271000
3,2,6,1321
0
3,2,7,1034
0
3,2,8,930
0
3,2,9,3028
0
3,2,4,239
0
3,2,5,4
0
3,0,0,0
179930000
3,2,6,1321
0
3,2,7,1035
0
3,2,8,930
0
3,2,9,3026
0
3,2,4,239
0
3,2,5,4
0
3,0,0,0
179342000
3,2,6,1321
0
3,2,7,1034
0
3,2,8,930
0
3,2,9,3027
0
3,2,4,239
0
3,2,5,4
0
3,0,0,0
179724999
3,2,6,1321
0
3,2,7,1034
0
3,2,8,930
0
3,2,9,3027
0
3,2,4,239
0
3,2,5,4
0
3,0,0,0
179543001
3,2,6,1323
0
3,2,7,1035
0
3,2,8,930
0
3,2,9,3028
0
3,2,4,239
0
3,2,5,4
0
3,0,0,0
180864999
3,2,6,1323
0
3,2,7,1034
0
3,2,8,930
0
3,2,9,3027
0
3,2,4,239
0
3,2,5,4
0
3,0,0,0
178294001
3,2,6,1323
0
3,2,7,1034
0
3,2,8,930
0
3,2,9,3030
0
3,2,4,239
0
3,2,5,4
0
3,0,0,0
179730999
3,2,6,1322
0
3,2,7,1035
0
3,2,8,930
0
3,2,9,3029
0
3,2,4,239
0
3,2,5,4
0
3,0,0,0
